456,175
506,273
430,116
248,2
340,372
174,55
589,97
116,122
336,164
81,84
48,72
249,27
541,328
437,105
79,2
200,158
378,7
271,249
419,137
74,299
65,267
287,154
396,81
414,21
318,249
562,164
59,245
527,11
240,296
305,295
